100 95768

 205 685
59 467
547 337
701 620
999 978
359 427
897 392
382 465
690 77
599 554
53 329
79 122
21 467
371 4
746 402
173 106
606 25
289 825
797 917
799 208
776 540
525 278
285 494
810 437
187 270
290 701
184 127
675 54
687 768
653 666
416 499
101 468
912 498
508 438
407 393
589 500
193 529
133 692
406 712
228 378
245 414
893 374
531 537
484 454
690 890
952 697
113 899
834 710
585 971
147 636
298 964
483 159
692 53
243 580
535 984
685 418
449 213
864 522
870 649
471 316
973 715
76 976
4 897
381 292
602 327
630 372
477 395
125 101
171 762
853 366
868 880
674 927
665 25
598 989
203 711
429 521
696 390
538 519
19 325
954 623
845 93
261 622
617 276
924 18
97 553
504 579
457 427
411 73
836 894
381 612
64 116
66 511
43 498
410 61
719 607
204 809
647 750
688 203
256 863
601 343
